(set-logic QF_BV)
(declare-fun x0 () (_ BitVec 32))
(declare-fun x1 () (_ BitVec 8))
(declare-fun x2 () (_ BitVec 8))
(assert (let ((?v_0 (bvadd x0 (bvsub (_ bv4294967295 32) ((_ zero_extend 24) x1))))) (and true (= ?v_0 (_ bv0 32)) (= (bvadd (bvadd (bvadd ?v_0 (_ bv0 32)) (bvsub (_ bv4294967295 32) ((_ zero_extend 24) x2))) (_ bv0 32)) (_ bv0 32)) true)))
(check-sat)
(exit)
